561,36
681,106
764,150
921,528
761,366
607,634
505,648
439,230
561,36
625,51
681,106
533,383
694,432
690,465
681,526
644,520
436,887
494,501
644,520
782,719
1055,596
1194,572
1055,596
761,366
690,378
415,364
494,501
414,542
148,322
639,140
690,378
690,465
782,719
